505235
134,133,15,78,21,88,94,121,79,59,16,111,105,52,33,126,35,93,124,97,143,100,5,107,95,82,103,98,1,87,76,73,48,63,30,34,7,84,8,89,96,10,113,3,62,149,125,22,104,4,115,150,44,71,45,128,68,119,91,106,13,74,123,136,112,64,145,31,27,129,144,49,147,72,80,14,122,77,131,32,38,23,67,116,101,39,57,41,117,140,66,60,17,130,148,11,61,36,69,127,118,40,139,53,24,12,43,109,51,20,25,81,110,47,120,42,28,6,9,37,2,19,99,114,102,108,70,135,86,29,58,55,50,137,132,65,85,142,18,75,146,26,56,83,141,90,92,54,46,138,134
